NAME : tsp45_26.207.tour
COMMENT : Length = 207
COMMENT : Found by LKH [Keld Helsgaun]
TYPE : TOUR
DIMENSION : 45
TOUR_SECTION
1
32
23
29
45
37
40
22
8
11
10
19
26
36
30
13
17
35
7
2
4
6
12
14
42
25
20
31
43
21
15
38
18
39
44
27
3
28
9
34
33
5
16
24
41
-1
EOF
